50
500
397
391
390
377
361
359
349
346
342
338
329
323
316
312
309
299
297
293
289
280
272
267
265
261
250
247
217
209
209
208
198
198
197
168
167
152
146
145
129
122
108
106
103
91
88
81
71
67
58
57
